logs/drand/ip/drand-05-110-1.lp
\ LP format - for model browsing. Use MPS format to capture full model detail.
Minimize
  z0 + z1 + z2 + z3 + z4 + z5
Subject To
 R0: x0,1_10 + x0,1_30 + x0,1_32 + x0,1_62 + x0,1_108 - z1 <= 0
 R1: x0,2_10 + x0,2_30 + x0,2_32 + x0,2_62 + x0,2_108 - z2 <= 0
 R2: x0,3_10 + x0,3_30 + x0,3_32 + x0,3_62 + x0,3_108 - z3 <= 0
 R3: x0,4_10 + x0,4_30 + x0,4_32 + x0,4_62 + x0,4_108 - z4 <= 0
 R4: x0,5_10 + x0,5_30 + x0,5_32 + x0,5_62 + x0,5_108 - z5 <= 0
 R5: x1,2_10 + x1,2_30 + x1,2_32 + x1,2_62 + x1,2_108 - z2 <= 0
 R6: x1,3_10 + x1,3_30 + x1,3_32 + x1,3_62 + x1,3_108 - z3 <= 0
 R7: x1,4_10 + x1,4_30 + x1,4_32 + x1,4_62 + x1,4_108 - z4 <= 0
 R8: x1,5_10 + x1,5_30 + x1,5_32 + x1,5_62 + x1,5_108 - z5 <= 0
 R9: x2,3_10 + x2,3_30 + x2,3_32 + x2,3_62 + x2,3_108 - z3 <= 0
 R10: x2,4_10 + x2,4_30 + x2,4_32 + x2,4_62 + x2,4_108 - z4 <= 0
 R11: x2,5_10 + x2,5_30 + x2,5_32 + x2,5_62 + x2,5_108 - z5 <= 0
 R12: x3,4_10 + x3,4_30 + x3,4_32 + x3,4_62 + x3,4_108 - z4 <= 0
 R13: x3,5_10 + x3,5_30 + x3,5_32 + x3,5_62 + x3,5_108 - z5 <= 0
 R14: x4,5_10 + x4,5_30 + x4,5_32 + x4,5_62 + x4,5_108 - z5 <= 0
 R15: x0,1_10 + x0,2_10 + x0,3_10 + x0,4_10 + x0,5_10 + x1,2_10 + x1,3_10
   + x1,4_10 + x1,5_10 + x2,3_10 + x2,4_10 + x2,5_10 + x3,4_10 + x3,5_10
   + x4,5_10 = 1
 R16: x0,1_30 + x0,2_30 + x0,3_30 + x0,4_30 + x0,5_30 + x1,2_30 + x1,3_30
   + x1,4_30 + x1,5_30 + x2,3_30 + x2,4_30 + x2,5_30 + x3,4_30 + x3,5_30
   + x4,5_30 = 1
 R17: x0,1_32 + x0,2_32 + x0,3_32 + x0,4_32 + x0,5_32 + x1,2_32 + x1,3_32
   + x1,4_32 + x1,5_32 + x2,3_32 + x2,4_32 + x2,5_32 + x3,4_32 + x3,5_32
   + x4,5_32 = 1
 R18: x0,1_62 + x0,2_62 + x0,3_62 + x0,4_62 + x0,5_62 + x1,2_62 + x1,3_62
   + x1,4_62 + x1,5_62 + x2,3_62 + x2,4_62 + x2,5_62 + x3,4_62 + x3,5_62
   + x4,5_62 = 1
 R19: x0,1_108 + x0,2_108 + x0,3_108 + x0,4_108 + x0,5_108 + x1,2_108
   + x1,3_108 + x1,4_108 + x1,5_108 + x2,3_108 + x2,4_108 + x2,5_108
   + x3,4_108 + x3,5_108 + x4,5_108 = 1
 R20: p0 - p1 <= -1
 R21: - 10 x0,1_10 - p0 + p1 >= 0
 R22: 242 x0,1_10 - p0 + p1 <= 252
 R23: - 30 x0,1_30 - p0 + p1 >= 0
 R24: 242 x0,1_30 - p0 + p1 <= 272
 R25: - 32 x0,1_32 - p0 + p1 >= 0
 R26: 242 x0,1_32 - p0 + p1 <= 274
 R27: - 62 x0,1_62 - p0 + p1 >= 0
 R28: 242 x0,1_62 - p0 + p1 <= 304
 R29: - 108 x0,1_108 - p0 + p1 >= 0
 R30: 242 x0,1_108 - p0 + p1 <= 350
 R31: p0 - p2 <= -1
 R32: - 10 x0,2_10 - p0 + p2 >= 0
 R33: 242 x0,2_10 - p0 + p2 <= 252
 R34: - 30 x0,2_30 - p0 + p2 >= 0
 R35: 242 x0,2_30 - p0 + p2 <= 272
 R36: - 32 x0,2_32 - p0 + p2 >= 0
 R37: 242 x0,2_32 - p0 + p2 <= 274
 R38: - 62 x0,2_62 - p0 + p2 >= 0
 R39: 242 x0,2_62 - p0 + p2 <= 304
 R40: - 108 x0,2_108 - p0 + p2 >= 0
 R41: 242 x0,2_108 - p0 + p2 <= 350
 R42: p0 - p3 <= -1
 R43: - 10 x0,3_10 - p0 + p3 >= 0
 R44: 242 x0,3_10 - p0 + p3 <= 252
 R45: - 30 x0,3_30 - p0 + p3 >= 0
 R46: 242 x0,3_30 - p0 + p3 <= 272
 R47: - 32 x0,3_32 - p0 + p3 >= 0
 R48: 242 x0,3_32 - p0 + p3 <= 274
 R49: - 62 x0,3_62 - p0 + p3 >= 0
 R50: 242 x0,3_62 - p0 + p3 <= 304
 R51: - 108 x0,3_108 - p0 + p3 >= 0
 R52: 242 x0,3_108 - p0 + p3 <= 350
 R53: p0 - p4 <= -1
 R54: - 10 x0,4_10 - p0 + p4 >= 0
 R55: 242 x0,4_10 - p0 + p4 <= 252
 R56: - 30 x0,4_30 - p0 + p4 >= 0
 R57: 242 x0,4_30 - p0 + p4 <= 272
 R58: - 32 x0,4_32 - p0 + p4 >= 0
 R59: 242 x0,4_32 - p0 + p4 <= 274
 R60: - 62 x0,4_62 - p0 + p4 >= 0
 R61: 242 x0,4_62 - p0 + p4 <= 304
 R62: - 108 x0,4_108 - p0 + p4 >= 0
 R63: 242 x0,4_108 - p0 + p4 <= 350
 R64: p0 - p5 <= -1
 R65: - 10 x0,5_10 - p0 + p5 >= 0
 R66: 242 x0,5_10 - p0 + p5 <= 252
 R67: - 30 x0,5_30 - p0 + p5 >= 0
 R68: 242 x0,5_30 - p0 + p5 <= 272
 R69: - 32 x0,5_32 - p0 + p5 >= 0
 R70: 242 x0,5_32 - p0 + p5 <= 274
 R71: - 62 x0,5_62 - p0 + p5 >= 0
 R72: 242 x0,5_62 - p0 + p5 <= 304
 R73: - 108 x0,5_108 - p0 + p5 >= 0
 R74: 242 x0,5_108 - p0 + p5 <= 350
 R75: p1 - p2 <= -1
 R76: - 10 x1,2_10 - p1 + p2 >= 0
 R77: 242 x1,2_10 - p1 + p2 <= 252
 R78: - 30 x1,2_30 - p1 + p2 >= 0
 R79: 242 x1,2_30 - p1 + p2 <= 272
 R80: - 32 x1,2_32 - p1 + p2 >= 0
 R81: 242 x1,2_32 - p1 + p2 <= 274
 R82: - 62 x1,2_62 - p1 + p2 >= 0
 R83: 242 x1,2_62 - p1 + p2 <= 304
 R84: - 108 x1,2_108 - p1 + p2 >= 0
 R85: 242 x1,2_108 - p1 + p2 <= 350
 R86: p1 - p3 <= -1
 R87: - 10 x1,3_10 - p1 + p3 >= 0
 R88: 242 x1,3_10 - p1 + p3 <= 252
 R89: - 30 x1,3_30 - p1 + p3 >= 0
 R90: 242 x1,3_30 - p1 + p3 <= 272
 R91: - 32 x1,3_32 - p1 + p3 >= 0
 R92: 242 x1,3_32 - p1 + p3 <= 274
 R93: - 62 x1,3_62 - p1 + p3 >= 0
 R94: 242 x1,3_62 - p1 + p3 <= 304
 R95: - 108 x1,3_108 - p1 + p3 >= 0
 R96: 242 x1,3_108 - p1 + p3 <= 350
 R97: p1 - p4 <= -1
 R98: - 10 x1,4_10 - p1 + p4 >= 0
 R99: 242 x1,4_10 - p1 + p4 <= 252
 R100: - 30 x1,4_30 - p1 + p4 >= 0
 R101: 242 x1,4_30 - p1 + p4 <= 272
 R102: - 32 x1,4_32 - p1 + p4 >= 0
 R103: 242 x1,4_32 - p1 + p4 <= 274
 R104: - 62 x1,4_62 - p1 + p4 >= 0
 R105: 242 x1,4_62 - p1 + p4 <= 304
 R106: - 108 x1,4_108 - p1 + p4 >= 0
 R107: 242 x1,4_108 - p1 + p4 <= 350
 R108: p1 - p5 <= -1
 R109: - 10 x1,5_10 - p1 + p5 >= 0
 R110: 242 x1,5_10 - p1 + p5 <= 252
 R111: - 30 x1,5_30 - p1 + p5 >= 0
 R112: 242 x1,5_30 - p1 + p5 <= 272
 R113: - 32 x1,5_32 - p1 + p5 >= 0
 R114: 242 x1,5_32 - p1 + p5 <= 274
 R115: - 62 x1,5_62 - p1 + p5 >= 0
 R116: 242 x1,5_62 - p1 + p5 <= 304
 R117: - 108 x1,5_108 - p1 + p5 >= 0
 R118: 242 x1,5_108 - p1 + p5 <= 350
 R119: p2 - p3 <= -1
 R120: - 10 x2,3_10 - p2 + p3 >= 0
 R121: 242 x2,3_10 - p2 + p3 <= 252
 R122: - 30 x2,3_30 - p2 + p3 >= 0
 R123: 242 x2,3_30 - p2 + p3 <= 272
 R124: - 32 x2,3_32 - p2 + p3 >= 0
 R125: 242 x2,3_32 - p2 + p3 <= 274
 R126: - 62 x2,3_62 - p2 + p3 >= 0
 R127: 242 x2,3_62 - p2 + p3 <= 304
 R128: - 108 x2,3_108 - p2 + p3 >= 0
 R129: 242 x2,3_108 - p2 + p3 <= 350
 R130: p2 - p4 <= -1
 R131: - 10 x2,4_10 - p2 + p4 >= 0
 R132: 242 x2,4_10 - p2 + p4 <= 252
 R133: - 30 x2,4_30 - p2 + p4 >= 0
 R134: 242 x2,4_30 - p2 + p4 <= 272
 R135: - 32 x2,4_32 - p2 + p4 >= 0
 R136: 242 x2,4_32 - p2 + p4 <= 274
 R137: - 62 x2,4_62 - p2 + p4 >= 0
 R138: 242 x2,4_62 - p2 + p4 <= 304
 R139: - 108 x2,4_108 - p2 + p4 >= 0
 R140: 242 x2,4_108 - p2 + p4 <= 350
 R141: p2 - p5 <= -1
 R142: - 10 x2,5_10 - p2 + p5 >= 0
 R143: 242 x2,5_10 - p2 + p5 <= 252
 R144: - 30 x2,5_30 - p2 + p5 >= 0
 R145: 242 x2,5_30 - p2 + p5 <= 272
 R146: - 32 x2,5_32 - p2 + p5 >= 0
 R147: 242 x2,5_32 - p2 + p5 <= 274
 R148: - 62 x2,5_62 - p2 + p5 >= 0
 R149: 242 x2,5_62 - p2 + p5 <= 304
 R150: - 108 x2,5_108 - p2 + p5 >= 0
 R151: 242 x2,5_108 - p2 + p5 <= 350
 R152: p3 - p4 <= -1
 R153: - 10 x3,4_10 - p3 + p4 >= 0
 R154: 242 x3,4_10 - p3 + p4 <= 252
 R155: - 30 x3,4_30 - p3 + p4 >= 0
 R156: 242 x3,4_30 - p3 + p4 <= 272
 R157: - 32 x3,4_32 - p3 + p4 >= 0
 R158: 242 x3,4_32 - p3 + p4 <= 274
 R159: - 62 x3,4_62 - p3 + p4 >= 0
 R160: 242 x3,4_62 - p3 + p4 <= 304
 R161: - 108 x3,4_108 - p3 + p4 >= 0
 R162: 242 x3,4_108 - p3 + p4 <= 350
 R163: p3 - p5 <= -1
 R164: - 10 x3,5_10 - p3 + p5 >= 0
 R165: 242 x3,5_10 - p3 + p5 <= 252
 R166: - 30 x3,5_30 - p3 + p5 >= 0
 R167: 242 x3,5_30 - p3 + p5 <= 272
 R168: - 32 x3,5_32 - p3 + p5 >= 0
 R169: 242 x3,5_32 - p3 + p5 <= 274
 R170: - 62 x3,5_62 - p3 + p5 >= 0
 R171: 242 x3,5_62 - p3 + p5 <= 304
 R172: - 108 x3,5_108 - p3 + p5 >= 0
 R173: 242 x3,5_108 - p3 + p5 <= 350
 R174: p4 - p5 <= -1
 R175: - 10 x4,5_10 - p4 + p5 >= 0
 R176: 242 x4,5_10 - p4 + p5 <= 252
 R177: - 30 x4,5_30 - p4 + p5 >= 0
 R178: 242 x4,5_30 - p4 + p5 <= 272
 R179: - 32 x4,5_32 - p4 + p5 >= 0
 R180: 242 x4,5_32 - p4 + p5 <= 274
 R181: - 62 x4,5_62 - p4 + p5 >= 0
 R182: 242 x4,5_62 - p4 + p5 <= 304
 R183: - 108 x4,5_108 - p4 + p5 >= 0
 R184: 242 x4,5_108 - p4 + p5 <= 350
 R185: z0 - z1 >= 0
 R186: z1 - z2 >= 0
 R187: z2 - z3 >= 0
 R188: z3 - z4 >= 0
 R189: z4 - z5 >= 0
Bounds
Binaries
 x0,1_10 x0,1_30 x0,1_32 x0,1_62 x0,1_108 x0,2_10 x0,2_30 x0,2_32 x0,2_62
 x0,2_108 x0,3_10 x0,3_30 x0,3_32 x0,3_62 x0,3_108 x0,4_10 x0,4_30 x0,4_32
 x0,4_62 x0,4_108 x0,5_10 x0,5_30 x0,5_32 x0,5_62 x0,5_108 x1,2_10 x1,2_30
 x1,2_32 x1,2_62 x1,2_108 x1,3_10 x1,3_30 x1,3_32 x1,3_62 x1,3_108 x1,4_10
 x1,4_30 x1,4_32 x1,4_62 x1,4_108 x1,5_10 x1,5_30 x1,5_32 x1,5_62 x1,5_108
 x2,3_10 x2,3_30 x2,3_32 x2,3_62 x2,3_108 x2,4_10 x2,4_30 x2,4_32 x2,4_62
 x2,4_108 x2,5_10 x2,5_30 x2,5_32 x2,5_62 x2,5_108 x3,4_10 x3,4_30 x3,4_32
 x3,4_62 x3,4_108 x3,5_10 x3,5_30 x3,5_32 x3,5_62 x3,5_108 x4,5_10 x4,5_30
 x4,5_32 x4,5_62 x4,5_108 z0 z1 z2 z3 z4 z5
Generals
 p0 p1 p2 p3 p4 p5
End
