logs/drand/ip/drand-05-110-1.sol
# Objective value = 5
x0,1_10 0
x0,1_30 1
x0,1_32 0
x0,1_62 0
x0,1_108 0
x0,2_10 0
x0,2_30 0
x0,2_32 0
x0,2_62 1
x0,2_108 0
x0,3_10 0
x0,3_30 0
x0,3_32 0
x0,3_62 0
x0,3_108 0
x0,4_10 0
x0,4_30 0
x0,4_32 0
x0,4_62 0
x0,4_108 1
x0,5_10 0
x0,5_30 0
x0,5_32 0
x0,5_62 0
x0,5_108 0
x1,2_10 0
x1,2_30 0
x1,2_32 1
x1,2_62 0
x1,2_108 0
x1,3_10 0
x1,3_30 0
x1,3_32 0
x1,3_62 0
x1,3_108 0
x1,4_10 0
x1,4_30 0
x1,4_32 0
x1,4_62 0
x1,4_108 0
x1,5_10 0
x1,5_30 0
x1,5_32 0
x1,5_62 0
x1,5_108 0
x2,3_10 0
x2,3_30 0
x2,3_32 0
x2,3_62 0
x2,3_108 0
x2,4_10 0
x2,4_30 0
x2,4_32 0
x2,4_62 0
x2,4_108 0
x2,5_10 0
x2,5_30 0
x2,5_32 0
x2,5_62 0
x2,5_108 0
x3,4_10 1
x3,4_30 0
x3,4_32 0
x3,4_62 0
x3,4_108 0
x3,5_10 0
x3,5_30 0
x3,5_32 0
x3,5_62 0
x3,5_108 0
x4,5_10 0
x4,5_30 0
x4,5_32 0
x4,5_62 0
x4,5_108 0
z0 1
z1 1
z2 1
z3 1
z4 1
z5 0
p0 0
p1 30
p2 62
p3 98
p4 108
p5 116
